c 59_3_checker_6cl.cnf
c
c field = 59
c formula set type = 3_checker_6cl
c
p cnf 6 14
110 
112 
114 
-109 
-106 
-118 
111 
113 
115 
-108 
-107 
-119 
56 
86 
146 
-177 
-26 
-206 
57 
87 
147 
-176 
-27 
-207 
86 
146 
176 
-57 
-26 
-206 
87 
147 
177 
-56 
-27 
-207 
86 
146 
176 
-207 
-56 
-236 
87 
147 
177 
-206 
-57 
-237 
146 
176 
206 
-87 
-56 
-236 
147 
177 
207 
-86 
-57 
-237 
146 
176 
206 
-237 
-86 
-266 
147 
177 
207 
-236 
-87 
-267 
144 
172 
200 
-229 
-88 
-256 
145 
173 
201 
-228 
-89 
-257 
